99 99
64 30
75 46
90 28
53 14
87 41
95 5
47 12
62 12
8 30
60 1
18 7
28 36
84 17
68 29
45 38
66 5
4 43
24 49
92 32
49 41
82 17
21 50
94 18
59 3
41 48
91 10
48 2
57 44
74 37
16 27
83 25
85 45
67 29
30 22
55 16
33 40
96 47
1 42
72 22
63 34
37 18
86 9
31 28
44 35
22 43
14 48
3 39
36 6
81 19
39 38
50 35
25 33
78 15
58 42
88 15
26 44
98 47
17 21
35 11
27 24
99 24
29 3
23 36
79 31
2 19
9 23
10 23
51 4
34 13
52 45
43 14
12 21
42 2
65 49
89 16
97 26
77 6
19 25
73 37
93 8
54 7
70 13
13 34
5 33
32 31
80 11
46 20
11 1
56 32
15 8
20 4
61 26
6 20
69 40
76 27
7 9
40 39
38 10
71 46
